c --- [ banner ] -------------------------------------------------------------
c 
c CaDiCaL Radically Simplified CDCL SAT Solver
c Copyright (c) 2016-2021 A. Biere, M. Fleury, N. Froleyks
c 
c Version 1.5.2 a5f15211db36c3956764e18194dd5bd63bf3b5e6
c g++ (GCC) 9.3.0 -Wall -Wextra -O3 -DNDEBUG
c Fri Oct 21 01:27:37 EDT 2022 Linux gra-login3 3.10.0-1160.66.1.el7.x86_64 x86_64
c 
c --- [ limit ] --------------------------------------------------------------
c 
c setting conflict limit to 200000 conflicts (due to '200000')
c 
c --- [ parsing input ] ------------------------------------------------------
c 
c reading DIMACS file from '33.cubes2716.adj'
c opening file to read '33.cubes2716.adj'
c found 'p cnf 6160 1595475' header
c parsed 1595475 clauses in 19.46 seconds process time
c closing file '33.cubes2716.adj'
c after reading 1457566775 bytes 1390.0 MB
c 
c --- [ options ] ------------------------------------------------------------
c 
c all options are set to their default value
c 
c --- [ solving ] ------------------------------------------------------------
c 
c time measured in process time since initialization
c 
c  seconds    reductions  redundant   irredundant
c          MB     restarts       trail       variables
c            level   conflicts       glue         remaining
c 
c * 19.47 1381  0 0   0    0    0  0% 0 1595422 2366 38%
c { 21.03 1448  0 0   0    0    0  0% 0 1595422 2366 38%
c i 24.08 1503 529 0   9   74   63 35% 25 1595422 2365 38%
c i 25.49 1507 234 0  18  178  116 26% 23 1595422 2364 38%
c i 25.94 1508 216 0  25  202  137 27% 26 1595422 2363 38%
c i 26.62 1509 194 0  36  243  171 26% 27 1595422 2362 38%
c i 27.22 1509 172 0  48  299  223 27% 30 1595422 2354 38%
c - 30.85 1480 171 1  48  300  224 27% 30 208163 2354 38%
c i 31.38 1378 165 1  58  341  259 27% 33 208163 2353 38%
c i 31.47 1378 162 1  62  360  276 26% 33 208163 2352 38%
c i 31.56 1378 156 1  63  380  294 27% 32 208163 2351 38%
c i 31.57 1378 153 1  63  391  301 27% 31 208163 2350 38%
c i 31.66 1378 153 1  64  412  320 27% 32 208163 2349 38%
c i 31.80 1378 146 1  70  453  352 27% 32 208163 2348 38%
c i 32.09 1378 140 1  79  507  392 27% 34 208163 2347 38%
c i 32.15 1378 132 1  85  543  418 27% 33 208163 2346 38%
c i 32.25 1378 127 1  85  580  444 27% 33 208163 2345 38%
c i 32.26 1378 126 1  85  592  454 27% 33 208163 2336 38%
c i 32.26 1378 125 1  85  598  459 27% 33 208163 2335 38%
c i 32.34 1378 106 1  85  775  606 28% 33 208163 2334 38%
c 
c  seconds     reductions  redundant   irredundant
c          MB      restarts       trail       variables
c             level   conflicts       glue         remaining
c 
c i 32.34 1378 106 1  85  777  607 28% 33 208163 2333 38%
c i 32.34 1378 106 1  85  778  607 28% 32 208163 2332 38%
c i 32.34 1378 105 1  85  779  607 28% 32 208163 2331 38%
c i 32.34 1378 105 1  85  780  607 28% 32 208163 2330 38%
c i 32.36 1378 101 1  85  818  640 28% 32 208163 2327 38%
c i 32.37 1378 100 1  85  830  648 28% 32 208163 2326 38%
c i 32.37 1378 100 1  85  833  650 28% 31 208163 2325 38%
c i 32.37 1378 100 1  85  835  651 28% 31 208163 2324 38%
c i 32.39 1378 95 1  85  882  683 28% 31 208163 2323 38%
c i 32.40 1378 95 1  85  885  685 28% 31 208163 2322 38%
c i 32.42 1378 90 1  85  948  725 28% 29 208163 2321 38%
c i 32.43 1378 89 1  85  955  730 28% 29 208163 2320 38%
c i 32.43 1378 89 1  85  956  730 28% 29 208163 2319 38%
c i 32.43 1378 88 1  85  966  735 28% 29 208163 2318 38%
c i 32.44 1378 85 1  85 1003  750 28% 28 208163 2316 38%
c } 32.46 1378 85 1  85 1003  750 28% 28 208163 2315 38%
c [ 32.46 1378  0 1  85 1003  750  0% 0 208163 2315 38%
c F 32.51 1378  8 1  85 1004  751 18% 8 208163 2315 38%
c i 32.69 1378 21 1  85 1028  773 31% 13 208163 2314 38%
c i 32.70 1378 21 1  85 1029  773 31% 13 208163 2313 38%
c 
c  seconds    reductions  redundant   irredundant
c          MB     restarts       trail       variables
c            level   conflicts       glue         remaining
c 
c i 32.70 1378 21 1  85 1036  777 31% 14 208163 2312 38%
c - 33.23 1465 22 2  85 1091  725 31% 18 207848 2312 38%
c i 33.59 1465 26 2  85 1659 1094 31% 22 207848 2311 38%
c i 33.64 1465 25 2  85 1782 1181 31% 22 207848 2310 38%
c - 34.02 1465 26 3  86 2278 1109 31% 22 207842 2310 38%
c ] 34.48 1465 26 3  86 2996 1585 54% 23 207842 2310 38%
c 1 34.48 1465 26 3  86 2996 1585 54% 23 207842 2310 38%
c 
c --- [ writing output ] -----------------------------------------------------
c 
c writing simplified CNF to DIMACS file 'simp/33.cubes2716.adj.simp1'
c * 34.48 1465 26 3  86 2996 1585 54% 23 207842 2310 38%
c opening file to write 'simp/33.cubes2716.adj.simp1'
c writing 'p cnf 6160 207842' header
c closing file 'simp/33.cubes2716.adj.simp1'
c after writing 100510049 bytes 95.9 MB
c wrote 207842 clauses in 0.71 seconds process time
c 
c --- [ writing extension ] --------------------------------------------------
c 
c writing extension stack to 'simp/33.cubes2716.adj.ext1'
c opening file to write 'simp/33.cubes2716.adj.ext1'
c closing file 'simp/33.cubes2716.adj.ext1'
c after writing 10402 bytes 0.0 MB
c wrote 706 witnesses in 0.00 seconds process time
c 
c --- [ result ] -------------------------------------------------------------
c 
s SATISFIABLE
c 
c --- [ run-time profiling ] -------------------------------------------------
c 
c process time taken by individual solving procedures
c (percentage relative to process time for solving)
c 
c        19.46  129.67% parse
c        15.01  100.00% search
c        11.43   76.13% unstable
c         2.02   13.43% stable
c         1.57   10.43% lucky
c         0.00    0.00% simplify
c   =================================
c        15.01   42.66% solve
c 
c last line shows process time for solving
c (percentage relative to total process time)
c 
c --- [ statistics ] ---------------------------------------------------------
c 
c chronological:               629        20.99 %  of conflicts
c conflicts:                  2996       199.60    per second
c decisions:                 15092      1005.44    per second
c fixed:                       706        11.46 %  of all variables
c learned:                    2922        97.53 %  per conflict
c learned_lits:             630865       100.00 %  learned literals
c minimized:                     0         0.00 %  learned literals
c shrunken:                 372751        59.09 %  learned literals
c minishrunken:              54342         8.61 %  learned literals
c propagations:             444230         0.03 M  per second
c reduced:                     469        15.65 %  per conflict
c rephased:                      1      2996.00    interval
c restarts:                     86        34.84    interval
c stabilizing:                   1        66.52 %  of conflicts
c subsumed:                    831         0.03 %  of all clauses
c 
c seconds are measured in process time for solving
c 
c --- [ resources ] ----------------------------------------------------------
c 
c total process time since initialization:        35.18    seconds
c total real time since initialization:           36.00    seconds
c maximum resident set size of process:         1552.07    MB
c 
c --- [ shutting down ] ------------------------------------------------------
c 
c exit 10
WARNING! DIMACS header mismatch: wrong number of variables.
============================[ Problem Statistics ]=============================
|                                                                             |
|  Number of variables:          6120                                         |
|  Number of clauses:          207842                                         |
|  Parse time:                   1.46 s                                       |
|  Simplification time:          0.02 s                                       |
|                                                                             |
============================[ Search Statistics ]====================================================
| Conflicts |          ORIGINAL         |          LEARNT          | Num Sols |      SUBGRAPHS      |
|           |    Vars  Clauses Literals |    Limit  Clauses Lit/Cl |          | Canonical Noncanon. |
=====================================================================================================
|       100 |    6028   207842 21752418 |     2000      100    139 |        0 |        11         0 |
|       250 |    6025   207842 21752418 |     2000      247    138 |        0 |        19         0 |
|       475 |    6023   207842 21752418 |     2000      470    119 |        0 |        26         0 |
|       822 |    6017   207852 21752594 |     2000      811    120 |        0 |        40        10 |
|      1382 |    6016   207906 21753872 |     2000     1370    121 |        0 |        53        64 |
|      2749 |    6011   208514 21763653 |     3594     1739     40 |        0 |       290       672 |
|      3996 |    6010   208622 21765030 |     3594     2985     78 |        0 |       308       780 |
|      5785 |    6009   208703 21766357 |     5006     2990     60 |        0 |       341       861 |
|      8521 |    6008   208877 21769683 |     6307     3227     53 |        0 |       383      1035 |
|     13015 |    5997   209527 21781682 |     7553     4567     51 |        0 |       544      1685 |
|     18929 |    5997   209675 21783942 |     8776     6705     76 |        0 |       584      1833 |
|     29614 |    5981   211711 21820701 |    11200     8014     66 |        0 |       982      3869 |
|     46648 |    5981   215771 21895517 |    13602    13250     54 |        0 |      1797      7929 |
|     66968 |    5981   216630 21910263 |    17213    11381     51 |        0 |      1985      8788 |
|     96930 |    5981   217400 21923334 |    20813    13743     50 |        0 |      2249      9558 |
|    142557 |    5981   219238 21957030 |    25630    14187     44 |        0 |      2552     11396 |
|    211601 |    5981   222050 22014755 |    30423    28424     71 |        0 |      3358     14756 |
|    314925 |    5981   226848 22101046 |    37615    31540     69 |        0 |      4826     19554 |
|    465225 |    5981   229359 22147537 |    46025    37650     73 |        0 |      5469     22065 |
|    690753 |    5981   233204 22234581 |    56821    34574     56 |        0 |      6684     25910 |
|   1034986 |    5981   244912 22440066 |    68819    67805     80 |        0 |      9087     37618 |
|   1540075 |    5981   251213 22562397 |    84430    78905     77 |        0 |     10974     43919 |
|   2294296 |    5981   257252 22676320 |   103614    85910     78 |        0 |     13054     49958 |
|   3427449 |    5981   268131 22878532 |   127615    69064     50 |        0 |     15555     60837 |
|   5144938 |    5978   302200 23523317 |   156434    89772     50 |        3 |     22276     94912 |
|   7721653 |    5978   353799 24523278 |   191229   155082     68 |        6 |     29654    146508 |
|  11544660 |    5953   319838 23910055 |   232974   157034     60 |        7 |     35965    181839 |
=====================================================================================================
Number of solutions   : 7
Canonical subgraphs   : 42911          (18 /sec)
          order  3    : 1              (142857 /sec)
          order  4    : 1              (1000000 /sec)
          order  5    : 1              (250000 /sec)
          order  6    : 1              (55556 /sec)
          order  7    : 1              (8850 /sec)
          order  8    : 2              (1361 /sec)
          order  9    : 6              (310 /sec)
          order 10    : 29             (107 /sec)
          order 11    : 109            (30 /sec)
          order 12    : 627            (10 /sec)
          order 13    : 3819           (13 /sec)
          order 14    : 8447           (26 /sec)
          order 15    : 17891          (20 /sec)
          order 16    : 10977          (16 /sec)
          order 17    : 501            (14 /sec)
          order 18    : 145            (11 /sec)
          order 19    : 138            (10 /sec)
          order 20    : 112            (10 /sec)
          order 21    : 96             (10 /sec)
          order 22    : 7              (0 /sec)
Noncanonical subgraphs: 197385         (691 /sec)
          order  3    : 0              (-nan /sec)
          order  4    : 0              (-nan /sec)
          order  5    : 0              (-nan /sec)
          order  6    : 0              (-nan /sec)
          order  7    : 0              (-nan /sec)
          order  8    : 0              (-nan /sec)
          order  9    : 0              (-nan /sec)
          order 10    : 0              (-nan /sec)
          order 11    : 0              (-nan /sec)
          order 12    : 0              (-nan /sec)
          order 13    : 8242           (6351 /sec)
          order 14    : 108410         (777 /sec)
          order 15    : 50921          (1104 /sec)
          order 16    : 24042          (599 /sec)
          order 17    : 5573           (118 /sec)
          order 18    : 102            (61 /sec)
          order 19    : 2              (15504 /sec)
          order 20    : 1              (2364 /sec)
          order 21    : 0              (-nan /sec)
Canonicity checking   : 2379.65 s
Noncanonicity checking: 285.734 s
Total canonicity time : 2665.38 s
database reductions   : 215
restarts              : 21495
conflicts             : 14359516       (1353 /sec)
decisions             : 17662925       (0.00 % random) (1664 /sec)
propagations          : 1670414491     (157391 /sec)
conflict literals     : 1611784233     (55.43 % deleted)
actual reward         : 0.106939
Memory used           : 415.00 MB
CPU time              : 10613.2 s

UNSATISFIABLE
